SystemName  H2O
SystemLabel  H2O

NumberOfSpecies  2
NumberOfAtoms  384
%block ChemicalSpecieslabel
    1 8 O.vdw.1
    2 1 H.vdw.2
%endblock ChemicalSpecieslabel

%block PAO.Basis
O.vdw.1     3     -0.24233
n=2   0   2   E    23.36061     3.39721
     4.50769     2.64066
     1.00000     1.00000
n=2   1   2   E     2.78334     5.14253
     6.14996     2.59356
     1.00000     1.00000
n=3   2   1   E    63.98188     0.16104
     3.54403
     1.00000
H.vdw.2 2      0.46527
n=1   0   2   E    99.93138     2.59932
     4.20357     1.84463
     1.00000     1.00000
n=2   1   1   E    24.56504     2.20231
     3.5281
     1.00000
%endblock PAO.Basis


LatticeConstant  1.0 Ang
%block LatticeVectors
    15.646000000000001     0.000000000000000     0.000000000000000 
    0.000000000000000     15.646000000000001     0.000000000000000 
    0.000000000000000     0.000000000000000     15.646000000000001 
%endblock LatticeVectors


AtomicCoordinatesFormat  Ang
%block AtomicCoordinatesAndAtomicSpecies
     1.859887145     15.993631243     15.587703850 1
     2.275562245     16.304913765     16.355194173 2
     2.438324517     15.231403314     15.375104770 2
    -2.720611862     18.115929750     10.669206457 1
    -3.444059193     17.595950410     10.987861483 2
    -3.092908448     18.994116080     10.711593612 2
    -4.481990414      0.486158988     11.940651249 1
    -5.133466196      0.103198122     11.336127934 2
    -4.876291697      1.158531978     12.536946771 2
     4.740552291     11.691090636     -0.323886143 1
     4.089747243     11.152894148     -0.761922053 2
     5.561154641     11.279935701     -0.624219326 2
    -2.272007702      2.177639874      1.106423051 1
    -1.603361067      2.006834489      1.810788599 2
    -2.867015684      2.862237680      1.444643886 2
    -7.015400482      2.622227952     17.626586877 1
    -7.429243328      2.328148951     16.807000757 2
    -7.614119409      2.204706647     18.285954373 2
     9.500882369     14.780941096      9.983095764 1
     9.404533490     15.580081434      9.394775453 2
     8.671968793     14.685475492     10.460164088 2
     5.183024015      2.723567080      7.083007283 1
     4.946905776      3.551991289      6.632494842 2
     4.721612440      2.705714108      7.950377668 2
     7.926044616     12.208985651     16.699624381 1
     8.779200619     11.773665532     16.660070780 2
     7.877816707     12.753298795     15.851677458 2
     7.156518622     -2.515035594     12.032153073 1
     7.357235781     -2.190688344     12.891356115 2
     7.870307361     -3.121812335     11.849095112 2
    12.126756291      6.058396142      8.571465018 1
    11.911468202      5.207225175      8.227505296 2
    11.341627466      6.523815396      8.209837392 2
     8.793639839      6.509971027      1.286307468 1
     9.204043939      7.232975502      0.694803350 2
     8.050641902      7.001901174      1.653830291 2
    12.801077275     10.922586836     18.008060512 1
    12.983957567     11.824204253     18.062309664 2
    13.580835993     10.534536028     18.422860283 2
    20.424769153      5.927167038     14.299607713 1
    19.774678779      5.585358480     13.651561486 2
    20.029445486      5.687672184     15.107907073 2
    15.442694064     -1.161728292      1.351871458 1
    16.016830316     -0.388217385      1.216608610 2
    14.523057499     -0.985061366      1.098502696 2
    -10.831722552     16.466138437     11.266733148 1
    -9.815092025     16.647869852     11.244867965 2
    -11.144463660     16.626858718     12.188551911 2
    14.900275344      6.273148606      7.494812460 1
    14.066816458      6.437709828      7.957908968 2
    14.983279962      5.290657423      7.310054274 2
     7.697383354     10.175125773      7.233269907 1
     8.086402599     10.905751413      7.768739650 2
     8.288899923      9.492798798      7.388618005 2
     1.534955852     -3.261585610      5.930296792 1
     0.778664471     -3.827518467      5.810996694 2
     2.293597947     -3.856485499      5.764945127 2
     0.884464754     24.053964252      0.340635714 1
    -0.043676278     24.199959426      0.172428535 2
     1.152451347     24.906256246      0.781537722 2
     4.378896250     14.491825681     15.146259349 1
     4.713823254     13.566886072     15.192070816 2
     4.224400672     14.541710734     14.166588837 2
    -2.051986946     13.196943574      4.461804161 1
    -1.843928676     14.143481907      4.471325686 2
    -3.004750505     13.150993517      4.605327043 2
     7.520805617      9.500171322     -11.138988515 1
     7.132917670      8.632818857     -11.427814127 2
     7.338973060      9.609950324     -10.167100464 2
     7.390414665      1.242734461      6.379696557 1
     7.220693799      0.368018629      6.105888144 2
     6.595129135      1.645910915      6.670049182 2
     7.151217184     20.077737512     12.483700527 1
     6.782732252     20.498059046     13.260475089 2
     7.758390808     20.742268291     12.081385122 2
    11.562783574      9.787015409      9.460329075 1
    11.975128908      9.440620995     10.267505322 2
    11.372553355     10.705603385      9.500550667 2
    20.728386570     10.693792757     11.833008868 1
    20.062701670     11.198048078     11.308013643 2
    21.487929595     11.290402041     11.910969441 2
    10.778210103     -8.344271557      5.836378390 1
    10.491124491     -7.656387902      5.175785565 2
    10.692545178     -9.190641374      5.408614794 2
    -5.394016894      1.779569566     13.942316334 1
    -6.311116101      2.110229332     14.192364527 2
    -4.946188173      2.689345260     13.782585276 2
     1.615457719      2.990717621      6.026065743 1
     2.335339139      2.443209955      5.711368613 2
     1.639840613      3.870770532      5.574609566 2
     4.479072218     10.786591384      2.266436634 1
     4.943259054     11.049288080      1.437610833 2
     4.193605970      9.856278770      2.225076532 2
    -0.063822264      6.035540573      2.154161780 1
    -0.367085249      5.715768439      1.236024461 2
     0.329874990      6.957216876      2.056484302 2
     5.638233869      8.248717484     13.165332466 1
     5.199083313      9.065536406     12.939392707 2
     5.175736081      7.833220624     13.927044665 2
    14.708796579      4.439384519     -0.003247332 1
    13.886783780      3.970134211      0.134953683 2
    14.568976335      4.808607106     -0.920450548 2
    11.993024523     12.417610482      6.935489137 1
    12.211164534     11.484985257      7.078840423 2
    11.126210435     12.484326507      6.593416415 2
     3.746190264     14.816184360     24.827928692 1
     4.353869628     15.269203332     25.371148203 2
     2.990787511     15.409554109     24.626280505 2
    14.795058280     11.268221718      5.857872673 1
    14.301528544     10.761464386      6.531559466 2
    14.269089556     12.027007818      5.567986803 2
    -2.383949016     12.667298206     -4.094008778 1
    -1.663698639     12.810295474     -4.745049077 2
    -2.302813978     13.505598066     -3.584702943 2
     1.100735580     14.262529454      4.019166087 1
     1.161626452     13.340427673      4.300554986 2
     0.599170742     14.265754039      3.183048516 2
     5.472458033     14.011961644      4.472012241 1
     4.601800550     13.909908998      4.809233383 2
     5.865342976     13.190382656      4.044841369 2
     9.536312516     12.936890628      5.584269695 1
     8.656501342     13.237012284      5.877555187 2
     9.390845757     12.914811239      4.652758122 2
     3.569030959     16.892300210      5.599975270 1
     4.396013717     17.164390395      5.981925243 2
     3.378232242     16.105017323      6.109290900 2
    10.642004169     11.077675193      0.619748450 1
    11.393676683     10.751892429      1.089735212 2
    10.912828694     11.320864071     -0.320936186 2
     8.860910369      4.478366099     -0.673225742 1
     9.653458777      4.911517726     -0.979736050 2
     8.636901737      5.009288946      0.074003950 2
    15.661476678      3.014535755     11.270962311 1
    14.708801645      2.968501082     11.305356655 2
    15.993353428      2.900672641     10.354256482 2
    10.891180151     12.395271459     10.263384816 1
    11.773667355     12.498138075     10.676347396 2
    10.653433563     13.192820027      9.809000502 2
     3.336362141     11.939689394      9.841383227 1
     2.418238924     11.668062199      9.920210049 2
     3.311477753     12.881282060      9.700226629 2
     5.561886444      6.064106720      6.971407712 1
     5.043425742      6.081071221      6.164895430 2
     5.576713605      6.943762449      7.397670599 2
    -4.450299018      4.378909103     13.558452200 1
    -4.423470649      5.052562384     12.857071515 2
    -3.930256309      4.792608850     14.352056206 2
     7.484989574      1.886935440     11.263745297 1
     7.479954423      2.886812125     11.420664879 2
     8.123811703      1.845678467     10.562581094 2
     5.880849425      0.665686906      0.842060423 1
     6.102677078      0.438291182      1.788264469 2
     5.330988425     -0.056369282      0.517439163 2
    -0.405468752     13.206877299      9.686621517 1
    -1.051903864     13.654098754      9.113719733 2
    -0.221839198     12.279065249      9.537397956 2
    13.978872480     15.911856374      3.888387846 1
    13.433564034     16.622729227      4.286429400 2
    14.526450276     16.533766288      3.340420912 2
    17.219425400     -7.606525696      4.899424789 1
    16.510689361     -7.070799967      4.564790816 2
    17.673270701     -7.036057555      5.442327128 2
    15.849507167     17.580160981      2.751408284 1
    16.791939976     17.459143222      2.641595527 2
    15.635197097     18.355699328      3.244495184 2
    -2.145966265     15.087134725     12.802922035 1
    -2.913599924     15.456890252     12.265887534 2
    -2.027292179     15.803094068     13.460113677 2
    14.358244041      3.380289636      6.098716496 1
    13.930790663      2.947991365      6.889241069 2
    15.297703926      3.069098894      6.139018257 2
    19.172464551      5.415092721     16.940517135 1
    19.670854173      4.583123644     17.078554795 2
    18.307937108      5.113068118     16.628503076 2
     0.174341165     -0.585175270      6.296420918 1
     0.457561285     -0.850426323      5.404092513 2
     0.974105097     -0.903147342      6.769779396 2
     7.631124685      7.070754237      9.903369710 1
     6.778611881      6.744165665      9.584790176 2
     8.121988919      7.365201776      9.103191820 2
     3.139824144     -6.240845833      6.828894219 1
     3.786584517     -6.692717198      7.401475242 2
     3.671681383     -5.786781266      6.181542917 2
     7.030676315     20.371591283      3.359692718 1
     7.631693329     20.640432810      2.655531696 2
     7.545258354     19.867215190      4.017260381 2
    -0.204450794      9.693348972     12.718439166 1
     0.267339833      8.912218054     13.073619709 2
    -0.857555174     10.079771886     13.401139492 2
    11.088927220      3.513229469     -7.842182831 1
    10.912893818      3.764098875     -8.754562061 2
    11.796614713      2.821653955     -7.982067803 2
    10.724444217      0.695102450      2.675820112 1
    10.678766241      0.723503393      3.674676083 2
    10.162208377      1.430561563      2.311186714 2
    14.628422968      0.925356606     14.559379230 1
    15.563033990      0.854696465     14.779138214 2
    14.243834328      1.501255607     15.198266157 2
    12.967932773      8.778515562     11.507825406 1
    13.198328372      7.856358242     11.790052197 2
    13.758073834      9.259371638     11.753336391 2
    15.931927442     12.365670359     -0.257811406 1
    15.885934541     13.251280934      0.123756520 2
    16.480940208     12.467212558     -1.005826316 2
    13.647263737      8.070244925     -0.345375523 1
    12.942701596      7.649717705      0.219730885 2
    13.297570742      8.882807354     -0.785750648 2
    12.752753924     -6.119085130      6.808647297 1
    12.618510689     -6.359135277      7.766417055 2
    13.087214291     -6.970646551      6.346622621 2
     1.451997194      5.275718373     20.505433145 1
     0.808657466      5.131588207     19.810427486 2
     1.445377969      6.205450746     20.698701819 2
     8.346615836      3.538260977      5.228961280 1
     8.382078876      4.221806764      5.907656383 2
     8.229390287      2.695292158      5.684756796 2
    16.946826035     -3.488647640     -2.845968444 1
    16.195019212     -3.004755661     -3.305885244 2
    16.723855731     -4.439023293     -2.868776581 2
     6.341850427     12.414432483      9.075472534 1
     6.655047633     12.358140542      9.960832544 2
     5.375808649     12.250011340      9.122850132 2
    17.547104616      3.717229446     15.495250966 1
    17.816419926      3.096141804     14.779923839 2
    16.560681813      3.755766226     15.520810687 2
     3.524247513      8.117443826      2.835608242 1
     2.972915253      8.052436060      3.604400655 2
     3.428250902      7.215106311      2.436906024 2
    13.724469672     26.449578949     14.247216764 1
    13.993032314     26.960082376     14.991660666 2
    12.991957082     27.001911545     13.910452999 2
     8.686428849     -1.208209764     18.229849339 1
     9.503057324     -0.714433634     18.070644848 2
     8.669286098     -1.997270805     17.639853264 2
    16.314697326      8.831873144      7.921997163 1
    15.829915240      8.409106938      7.154501155 2
    17.058825006      9.331951792      7.637678118 2
     9.316332750      5.683472516     -4.441604685 1
    10.057021909      5.224796755     -4.869526952 2
     8.747754894      5.993409651     -5.201664781 2
    19.957274939      7.698740146     10.815355903 1
    20.556134236      7.735844899     11.622407369 2
    20.230048997      6.846576286     10.406452768 2
    18.964808112     20.317229966     -3.494940292 1
    19.039986432     19.382040787     -3.321498419 2
    17.936092343     20.550431013     -3.472392417 2
    15.357534031      9.730064271      3.583980900 1
    15.999170462     10.105989287      2.989286779 2
    15.354562797     10.280930671      4.392277993 2
    -2.450777482     17.656790170      8.040722581 1
    -2.452878921     17.990062709      8.985271149 2
    -2.197974199     16.693421017      8.073099822 2
    10.400022963      9.022619255      3.790228257 1
     9.551466162      9.478029379      3.880412090 2
    11.081142199      9.637213795      4.094341209 2
    13.564211648     14.736435089      7.993128360 1
    12.963651681     14.081727760      7.646045178 2
    14.359598699     14.650970005      7.359830734 2
     6.506130455      0.415305657     18.909191328 1
     5.795675281     -0.046440148     19.337990282 2
     7.173034671     -0.317959969     18.823538001 2
    16.102449279      5.691996142     11.795004778 1
    15.959128956      4.905834084     11.311390380 2
    16.460238369      6.299510871     11.085291515 2
     9.408210967     -7.481641719      8.425108790 1
     9.662572703     -7.698609532      7.539301505 2
    10.069298829     -6.825453608      8.762771027 2
    12.517269628     -0.846139587      1.198396103 1
    12.209034198     -0.537158282      2.075008767 2
    12.632087019     -0.047328780      0.692423819 2
     5.134004584     -12.704474642      2.100745762 1
     5.280362057     -13.428057283      1.478938722 2
     5.985374925     -12.295918157      2.248237458 2
     1.611060268     10.865243700      1.663939390 1
     1.308981592     11.504734818      0.964931677 2
     2.557445837     11.051824878      1.811579951 2
     1.172135412      3.918330447      8.879942608 1
     1.232399798      4.872451927      9.078196116 2
     1.546368361      3.745598424      7.990290617 2
     2.105838702     17.691090606     12.963712881 1
     1.337580993     17.905255888     12.410283840 2
     1.993199784     16.761379709     13.193277659 2
    13.724728317      7.553067087      4.930748264 1
    12.745889048      7.399457651      5.000931611 2
    14.147162985      6.916677012      5.568177630 2
     9.170852064      1.551169169      8.560460349 1
     9.777293507      2.186490330      8.206279347 2
     8.504062092      1.605892787      7.887031495 2
     9.965070847      8.311563417     15.108836286 1
     9.459387858      8.211732838     14.325283985 2
    10.328493669      9.221399202     15.162000105 2
    -3.083912814     20.963210095     -4.518784902 1
    -3.160982197     21.576649795     -5.204135564 2
    -2.416025990     21.280834097     -3.905999591 2
     5.200048321      8.449098757      8.331341753 1
     4.806931531      8.405780946      9.279175626 2
     5.956375693      9.010057579      8.386193362 2
    10.949931561     11.869497007     13.679860229 1
    10.620841408     12.799711737     13.860303748 2
    10.211417973     11.335896955     13.376948856 2
     1.626729750     -8.829976002      9.790826422 1
     1.197242638     -8.426914337      9.043624406 2
     2.313419222     -8.271875531     10.031485769 2
    -1.478757472      6.092301714     13.423397852 1
    -0.621103363      5.933845612     13.038364890 2
    -1.528353949      6.848055330     14.002599524 2
     8.580344725      8.184762064     12.770685748 1
     8.943239569      7.560888042     12.086591730 2
     7.603873679      8.097308647     12.693437158 2
     7.537637766     -1.457294709     -0.987829465 1
     7.028958800     -0.639189449     -0.893813275 2
     8.435028829     -1.121935004     -0.929524860 2
     3.697123286     18.224856171      9.467956416 1
     2.841030074     17.883004596      9.427970343 2
     4.173224209     17.806133844     10.168154787 2
    11.654152676      4.614291269     16.137513169 1
    12.101213960      5.226958265     16.800359893 2
    10.716365326      4.733115566     16.206597068 2
    18.520021305      1.447838176     18.471420859 1
    19.262644893      2.056157690     18.413468877 2
    18.506055853      0.962641396     19.290509300 2
     3.367531163     14.138578980     12.741464225 1
     4.007542977     14.138297063     12.023468144 2
     3.118921897     13.176148227     12.768983494 2
     1.473034802     16.357438894      8.770185246 1
     0.951382375     16.169291115      9.554278724 2
     0.857142878     16.328479954      7.971125753 2
     6.498985033      7.473977611      3.002750057 1
     5.633505509      7.831304742      2.826450977 2
     6.421470026      6.518739594      3.232714364 2
     1.520273820     -7.877402059     13.398999959 1
     1.409046260     -7.795418766     14.384359642 2
     1.657026817     -8.889042363     13.125505251 2
     4.521955487     -11.130291040      4.975662833 1
     5.265838145     -11.169150169      4.343553614 2
     3.760803871     -10.778635270      4.498603025 2
    15.674022005      0.005736307     10.940782398 1
    15.045092755     -0.070751112     11.680216577 2
    15.623174714     -0.866284393     10.587681838 2
    -3.235977809      6.920221097      1.883656416 1
    -2.440003395      6.945822782      2.430202927 2
    -3.914341603      7.398710697      2.323566205 2
    13.575982457      3.583063307      3.601672310 1
    13.967103996      4.396981757      3.328908270 2
    13.820296993      3.420658979      4.573188537 2
     3.100218770     10.089571649     13.673195386 1
     2.817989698      9.128280406     13.701091695 2
     3.398144884     10.279846625     12.788388785 2
     7.547721911     17.252089220     14.177000324 1
     6.748635156     17.601723482     14.609276546 2
     7.564076317     17.441466584     13.266434739 2
     0.109138886     10.565117773     10.017366665 1
    -0.014651733      9.823510967      9.421437280 2
    -0.016498536     10.189201234     10.908806288 2
     9.265098543     10.847778044     11.908511602 1
     9.133542739      9.908782300     11.918758347 2
     9.705792025     11.188875356     11.104112875 2
    19.757836562     -4.248702988      4.962327689 1
    20.138171187     -4.261348466      4.076068506 2
    20.389494392     -3.767331684      5.489062832 2
     5.326912849      5.175206799      9.795206969 1
     5.296198199      4.610754838      9.026177223 2
     5.024485778      4.615361158     10.516395463 2
    19.236630480     -1.541226412      6.594668154 1
    18.350464401     -2.054654802      6.461990516 2
    19.269861018     -1.457985920      7.564635043 2
    11.195873760     20.259716236     20.442365255 1
    10.406913323     19.881172968     19.998277445 2
    11.974169967     20.107210791     19.844553842 2
    11.054346170     15.909017759      5.295487543 1
    11.410515251     16.432580872      6.032835315 2
    10.558180342     15.250484396      5.696138399 2
     8.078598806      6.046708579     21.961486583 1
     8.170673462      6.749028147     21.267162416 2
     7.141470847      5.987684414     22.194908634 2
    10.581120443     -1.274452422     14.743200683 1
    11.082809462     -0.509731741     14.392365053 2
    10.991066285     -1.443307571     15.582347216 2
     7.190082500     14.025551085     -8.978053207 1
     6.393475933     13.851238272     -9.546667282 2
     7.056536161     13.696126273     -8.123236465 2
     6.717278705     12.037658296      3.554310557 1
     6.954086510     11.992341390      2.634037475 2
     7.119420687     11.203221026      3.975943077 2
%endblock AtomicCoordinatesAndAtomicSpecies

XC.functional  VDW
XC.authors  BH
DM.MixingWeight  0.3
DM.NumberPulay  3
DM.UseSaveDM  True
DM.FormattedFiles  True
MeshCutoff  2721.1386 eV
ElectronicTemperature  0.00500000 eV
WriteMullikenPop  1
