SystemName  H2O
SystemLabel  H2O

NumberOfSpecies  2
NumberOfAtoms  384
%block ChemicalSpecieslabel
    1 8 O.vdw.1
    2 1 H.vdw.2
%endblock ChemicalSpecieslabel

%block PAO.Basis
O.vdw.1     3     -0.24233
n=2   0   2   E    23.36061     3.39721
     4.50769     2.64066
     1.00000     1.00000
n=2   1   2   E     2.78334     5.14253
     6.14996     2.59356
     1.00000     1.00000
n=3   2   1   E    63.98188     0.16104
     3.54403
     1.00000
H.vdw.2 2      0.46527
n=1   0   2   E    99.93138     2.59932
     4.20357     1.84463
     1.00000     1.00000
n=2   1   1   E    24.56504     2.20231
     3.5281
     1.00000
%endblock PAO.Basis


LatticeConstant  1.0 Ang
%block LatticeVectors
    15.646000000000001     0.000000000000000     0.000000000000000 
    0.000000000000000     15.646000000000001     0.000000000000000 
    0.000000000000000     0.000000000000000     15.646000000000001 
%endblock LatticeVectors


AtomicCoordinatesFormat  Ang
%block AtomicCoordinatesAndAtomicSpecies
     1.881755114     16.021687159     15.560681895 1
     2.265835925     16.382378356     16.305735384 2
     2.382119223     15.199775808     15.428326558 2
    -2.715902559     18.073667931     10.731134314 1
    -3.320323883     17.492314114     11.147008130 2
    -3.143841701     18.913616227     10.784998136 2
    -4.472467552      0.510848521     11.960073107 1
    -5.108721072      0.108196321     11.369794333 2
    -4.974160364      1.066059032     12.600512977 2
     4.757676806     11.674288340     -0.289993213 1
     4.107782066     11.235768730     -0.840261648 2
     5.559874692     11.268040825     -0.640748045 2
    -2.314543145      2.199503610      1.090036822 1
    -1.616915016      2.117642151      1.781882806 2
    -2.883664158      2.874620268      1.374592666 2
    -7.070380004      2.612217451     17.584884007 1
    -7.337388440      2.357699972     16.704079563 2
    -7.583602006      2.168150582     18.283056103 2
     9.471987193     14.769282923     10.004549544 1
     9.430779129     15.577455654      9.399898108 2
     8.686840358     14.740814679     10.559300441 2
     5.160105678      2.674395524      7.101679132 1
     5.106904588      3.497092946      6.567980659 2
     4.667922043      2.669358607      7.949536854 2
     7.923118784     12.201746406     16.662253256 1
     8.817885932     11.843303754     16.633609185 2
     7.842947139     12.687686111     15.773533830 2
     7.128343164     -2.515535634     12.037225690 1
     7.309160662     -2.097160473     12.863014304 2
     7.807645749     -3.131692367     11.836056074 2
    12.139021777      6.018715700      8.554053462 1
    11.907435795      5.202157135      8.144892796 2
    11.534136847      6.638100583      8.089534441 2
     8.810259503      6.556509234      1.304350892 1
     9.355086827      7.230274024      0.785484687 2
     8.099937727      7.170855479      1.586404526 2
    12.773811938     10.914426091     18.012658578 1
    12.862609519     11.845377018     18.071358147 2
    13.546247092     10.607258772     18.491021263 2
    20.461839428      5.952602862     14.303385849 1
    19.870226042      5.586595791     13.608892084 2
    20.062873324      5.695887255     15.092116434 2
    15.421267422     -1.183923602      1.344604013 1
    15.840019450     -0.307420278      1.105990977 2
    14.457230851     -0.947918492      1.262768825 2
    -10.862032112     16.502810616     11.281537147 1
    -9.865442081     16.613644588     11.242858610 2
    -11.135343615     16.783805063     12.177215207 2
    14.901464044      6.238447353      7.511084844 1
    14.008456348      6.333804057      7.871693843 2
    15.042943119      5.241501806      7.467246750 2
     7.713651484     10.184845149      7.223734576 1
     8.108703471     10.875544706      7.786119953 2
     8.289627359      9.477673162      7.290188819 2
     1.520386369     -3.217974397      5.932723332 1
     0.714415007     -3.705986191      6.001319634 2
     2.232697342     -3.888100039      5.811605380 2
     0.858645156     24.011801531      0.393889324 1
    -0.072008195     24.194964095      0.327212235 2
     1.180138425     24.798402344      0.912494151 2
     4.426847315     14.496033170     15.146084309 1
     4.724454606     13.560145632     15.175892637 2
     4.173880403     14.598851592     14.180052732 2
    -2.044685130     13.188603661      4.492691502 1
    -1.765037335     14.108568379      4.619235869 2
    -2.971243438     13.212310601      4.583095372 2
     7.544824078      9.491443780     -11.093323966 1
     7.241102059      8.641695823     -11.484226729 2
     7.115913659      9.574407054     -10.244623720 2
     7.395009130      1.301365188      6.367181137 1
     7.244569319      0.392207226      6.148772465 2
     6.603593947      1.595273818      6.792454915 2
     7.122149144     20.057243379     12.534378865 1
     6.789885531     20.540524626     13.318621828 2
     7.910456124     20.504512465     12.216858894 2
    11.585274959      9.780160092      9.474155453 1
    11.802892891      9.519776960     10.376585110 2
    11.287279430     10.650066718      9.639148883 2
    20.739336870     10.677785598     11.840171461 1
    20.113435453     11.224429300     11.321790468 2
    21.492333443     11.248140671     12.002843307 2
    10.792920543     -8.327714950      5.813740224 1
    10.648290932     -7.695920415      5.040278753 2
    10.803931357     -9.212192179      5.446525158 2
    -5.377159791      1.751496936     14.018928433 1
    -6.273061767      2.130075039     14.277802824 2
    -4.828198345      2.604767118     13.867774948 2
     1.546123199      2.984200984      6.040981833 1
     2.256192333      2.436664108      5.744200641 2
     1.777612927      3.869537667      5.687805090 2
     4.463499257     10.790845887      2.310781895 1
     4.700005828     11.106865247      1.413274261 2
     4.221083907      9.853046041      2.353096380 2
    -0.003126110      5.997995108      2.099311380 1
    -0.440264841      5.705136160      1.228978077 2
     0.201427680      6.962205659      1.926650991 2
     5.614242462      8.244225090     13.133521961 1
     5.177264892      9.090017479     13.058111125 2
     5.208528845      7.640545905     13.797939209 2
    14.707350174      4.468773011     -0.039894775 1
    13.847671825      4.019590974      0.218003541 2
    14.528016301      4.805327595     -0.959306618 2
    12.002401801     12.437559134      6.978018591 1
    12.029698735     11.476869034      7.198718416 2
    11.165569152     12.457136936      6.494269212 2
     3.719113372     14.806375618     24.805609647 1
     4.223217310     15.299697795     25.421689467 2
     3.016429076     15.458682370     24.588940423 2
    14.774178885     11.287262978      5.878463688 1
    14.191806205     10.773376849      6.453077223 2
    14.301199429     12.025119677      5.425204212 2
    -2.322705820     12.641389071     -4.104348929 1
    -1.752148023     12.940669562     -4.846871410 2
    -2.549401611     13.383816776     -3.551625395 2
     1.095983760     14.287441307      4.005521582 1
     1.371942863     13.415368882      4.344347010 2
     0.506520698     14.208618203      3.237657166 2
     5.466893305     13.984958235      4.449860972 1
     4.628854641     13.975481366      4.888645668 2
     5.754123581     13.098524717      4.054902543 2
     9.525651592     12.995148302      5.570548392 1
     8.786331372     13.475984044      5.923713834 2
     9.364854499     12.900869911      4.627687214 2
     3.552161447     16.893469779      5.641427877 1
     4.419409865     17.170505288      5.929406033 2
     3.356062509     16.219676241      6.284849986 2
    10.625716431     11.049300123      0.613481224 1
    11.335582142     10.622171711      1.086667245 2
    10.966447116     11.379726877     -0.289000434 2
     8.830977908      4.460882539     -0.704179013 1
     9.514510765      4.931784616     -1.166573060 2
     8.543799512      5.019400973      0.003434762 2
    15.625009991      3.032720047     11.232844760 1
    14.686028124      3.031082230     11.351259328 2
    15.685580698      2.783815729     10.304423533 2
    10.921793358     12.375978715     10.270240994 1
    11.780806261     12.621345025     10.729776712 2
    10.465700034     13.094650631      9.861918441 2
     3.325700997     11.946552156      9.810297444 1
     2.477138727     11.648551052      9.999153825 2
     3.346733382     12.872145728      9.539411126 2
     5.576221131      6.076812317      6.911698107 1
     4.996346387      5.947707324      6.175163443 2
     5.654671927      6.913064776      7.405849130 2
    -4.486629767      4.435241617     13.617360085 1
    -4.341977185      4.965863850     12.814498730 2
    -3.979319891      4.815829567     14.410284112 2
     7.498252754      1.920419320     11.239759228 1
     7.301523198      2.863675905     11.464222943 2
     8.216714261      1.813444382     10.640138066 2
     5.862506343      0.656641704      0.785586125 1
     6.243229889      0.531597533      1.694735147 2
     5.363540726     -0.144907458      0.562468414 2
    -0.388863018     13.211840196      9.705355443 1
    -1.046902057     13.546985125      9.084278520 2
    -0.087024566     12.299713579      9.591752887 2
    13.965821694     15.960842797      3.883352476 1
    13.301618818     16.550363181      4.238575085 2
    14.567686125     16.413147770      3.314516719 2
    17.207873390     -7.588965103      4.966781112 1
    16.551745058     -7.108867695      4.495586326 2
    17.741479820     -7.128571725      5.536466485 2
    15.819161797     17.542175450      2.777892423 1
    16.770880854     17.489461442      2.691288928 2
    15.644852887     18.394305108      3.173775144 2
    -2.143980231     15.129832452     12.816758190 1
    -2.977352224     15.503542405     12.437673651 2
    -2.037768163     15.756669763     13.548261660 2
    14.356353899      3.385363568      6.060255605 1
    13.984816066      2.915383780      6.836308894 2
    15.303701675      3.053734792      6.061728679 2
    19.193645071      5.387041378     16.946731815 1
    19.569870897      4.490150350     17.052324009 2
    18.332827826      5.078019854     16.588663350 2
     0.174042756     -0.554055627      6.316076349 1
     0.485478390     -0.720251645      5.412520204 2
     1.012823962     -0.770004141      6.806608282 2
     7.626680304      7.051781802      9.884915506 1
     6.765536835      6.737303913      9.545473824 2
     8.112710023      7.563982338      9.181189639 2
     3.166567788     -6.251010960      6.853802610 1
     3.824585605     -6.730625420      7.386719271 2
     3.721414243     -5.681426470      6.289369737 2
     7.000659893     20.389924221      3.355918457 1
     7.600182667     20.510632306      2.601014822 2
     7.478905819     19.792449474      3.954969647 2
    -0.213460295      9.688603830     12.654091781 1
     0.271897118      8.890387964     12.934443754 2
    -0.748581860     10.093582655     13.436258728 2
    11.129615394      3.551441034     -7.878834699 1
    10.870533248      3.811831873     -8.752514766 2
    11.904956794      2.912694238     -7.925396615 2
    10.716592406      0.687135064      2.673636656 1
    10.696583561      0.754280692      3.652332369 2
    10.203430593      1.435700215      2.277621297 2
    14.628719704      0.955970600     14.565584779 1
    15.547904933      0.658017527     14.709325145 2
    14.408908225      1.593900196     15.233005463 2
    12.994783348      8.848457661     11.491261136 1
    13.172510926      7.910766688     11.671966899 2
    13.806000095      9.239559016     11.842307985 2
    15.932066330     12.387608559     -0.227144054 1
    15.876190164     13.251916332      0.181505742 2
    16.416637387     12.298300837     -1.019721965 2
    13.680220402      8.025103734     -0.315509797 1
    12.920767374      7.667502970      0.195966766 2
    13.358969951      8.873636720     -0.739680178 2
    12.777869249     -6.109206006      6.837189568 1
    12.560318774     -6.472470851      7.743716655 2
    13.054120728     -6.874021626      6.272138338 2
     1.431755931      5.300790650     20.495294341 1
     0.839876526      5.103495010     19.781016101 2
     1.484557226      6.255958345     20.517847063 2
     8.394638747      3.497946780      5.244241078 1
     8.344390792      4.302024961      5.769834878 2
     8.044596118      2.721092185      5.706035970 2
    16.916792201     -3.494751311     -2.869086489 1
    16.150408944     -3.097391539     -3.349866237 2
    16.669908661     -4.438949449     -2.948122161 2
     6.351182385     12.387230776      9.097196948 1
     6.695367719     12.546617885      9.993434494 2
     5.400482109     12.218688585      9.327532130 2
    17.582917641      3.714605389     15.499087385 1
    17.880973000      3.070940836     14.829927059 2
    16.627886391      3.658287630     15.637421297 2
     3.530489906      8.098268268      2.823045044 1
     2.988222356      8.018576637      3.600812050 2
     3.339096054      7.321792614      2.237198673 2
    13.757697841     26.483196841     14.253026744 1
    14.024863906     27.129476535     14.914262219 2
    12.873099724     26.864583789     13.993610559 2
     8.659778491     -1.139213641     18.203767254 1
     9.537150439     -0.740988158     18.048286222 2
     8.593097890     -1.920908709     17.608568988 2
    16.243906822      8.849096118      7.971069656 1
    15.909946107      8.312474096      7.140177989 2
    17.086384070      9.175981014      7.710666944 2
     9.353455405      5.687226876     -4.379598731 1
    10.072229220      5.197127436     -4.765057393 2
     8.696374998      5.993048140     -5.092864556 2
    19.991031390      7.715830787     10.749260278 1
    20.412390444      7.802708795     11.640817729 2
    20.299565361      6.884613717     10.380811147 2
    18.977267033     20.290138455     -3.471093902 1
    19.046967825     19.334576145     -3.432128065 2
    17.987958693     20.463866468     -3.541971846 2
    15.351288227      9.780972253      3.596847735 1
    15.982968067     10.059215252      2.949366217 2
    15.440444126     10.345117844      4.366080322 2
    -2.407798759     17.639923661      8.010020222 1
    -2.348098721     17.724339527      9.004013271 2
    -2.187230807     16.663720370      7.925462211 2
    10.388356208      9.046125163      3.817109612 1
     9.536798082      9.508140814      3.685374375 2
    10.952245112      9.732083187      4.134388086 2
    13.564402646     14.718192844      7.999196441 1
    12.923371728     14.206109329      7.487985277 2
    14.398166139     14.581795827      7.430184264 2
     6.529850544      0.428355156     18.918316836 1
     5.826382806     -0.073220161     19.266766568 2
     7.285320082     -0.226348640     18.802259300 2
    16.085694253      5.651482838     11.787170175 1
    15.972058880      4.786311827     11.457030013 2
    16.452732405      6.252193217     11.079494225 2
     9.430945819     -7.419589344      8.378879403 1
     9.739882617     -7.659693444      7.521113325 2
    10.117209147     -6.829529825      8.761249229 2
    12.520649521     -0.834866155      1.222159844 1
    12.128373247     -0.513849498      2.073043002 2
    12.616176220     -0.047586966      0.681248119 2
     5.134839049     -12.686496691      2.061714421 1
     5.414038399     -13.414892818      1.493152370 2
     5.953080874     -12.274042919      2.294579076 2
     1.581671401     10.831744769      1.648856162 1
     1.264626992     11.577295910      1.083170786 2
     2.506386199     11.043206927      1.899985519 2
     1.139807143      3.904874998      8.872872344 1
     1.298710332      4.860149562      8.975078521 2
     1.451887505      3.658430305      7.962072380 2
     2.106565971     17.683231597     12.971968791 1
     1.312450993     17.782661613     12.426648724 2
     2.061596532     16.728120768     13.066728849 2
    13.738291461      7.522180537      4.912334501 1
    12.792178628      7.242724887      4.979321606 2
    14.213458524      6.923665906      5.541307715 2
     9.181089233      1.567781871      8.510768983 1
     9.830380819      2.178214911      8.205779201 2
     8.517634735      1.567770134      7.839624893 2
     9.953163712      8.279564285     15.111492655 1
     9.390687858      8.318612024     14.355623525 2
    10.269768004      9.199692556     15.067780823 2
    -3.064207708     20.930227343     -4.537803462 1
    -3.077916299     21.420072972     -5.335616575 2
    -2.540473764     21.273914399     -3.798072664 2
     5.205033076      8.457245872      8.302840114 1
     4.785937870      8.501361796      9.234897560 2
     5.899237570      9.095533950      8.375438335 2
    10.953130348     11.845012860     13.691429526 1
    10.630716801     12.753187905     13.881280717 2
    10.420216240     11.370982646     12.994107037 2
     1.625891134     -8.794166749      9.802117707 1
     1.067907381     -8.248400051      9.257488584 2
     2.340332249     -8.284863546     10.087998002 2
    -1.514002413      6.070384579     13.401671831 1
    -0.651147367      6.034938003     12.978184130 2
    -1.573168040      6.796049936     14.019181267 2
     8.590179555      8.159734549     12.757790739 1
     8.787747076      7.453001290     12.093662273 2
     7.592527676      8.192777519     12.659899697 2
     7.536647434     -1.462201829     -1.021498716 1
     7.004740603     -0.702632617     -0.839874500 2
     8.405595391     -1.057856242     -1.063541236 2
     3.709715010     18.242929366      9.510223814 1
     2.815497862     17.958472447      9.541220916 2
     4.164618041     17.623001940     10.057380185 2
    11.636804894      4.610950579     16.141038122 1
    12.111495438      5.259177685     16.729175496 2
    10.723695462      4.652331267     16.395972808 2
    18.536518150      1.449209136     18.521730825 1
    19.284097492      2.039338347     18.465774085 2
    18.649568103      0.918281983     19.305046990 2
     3.356939640     14.092859613     12.747001125 1
     3.920065929     14.368799769     12.020446514 2
     3.132920030     13.158873594     12.696901669 2
     1.471245225     16.336620726      8.745438712 1
     0.931820493     16.199730466      9.567661528 2
     0.849136452     16.222250149      7.978416903 2
     6.518252242      7.484034340      3.042871656 1
     5.599211405      7.673855651      2.860574974 2
     6.409682713      6.508266494      3.155306240 2
     1.482577655     -7.878776022     13.384108896 1
     1.470245117     -7.963006311     14.369910982 2
     1.620587332     -8.843394390     13.006122847 2
     4.486325075     -11.071987542      4.977065414 1
     5.213946896     -11.063806564      4.311792847 2
     3.702094293     -10.886994597      4.466488105 2
    15.665586317     -0.027236851     10.958290975 1
    14.949231785      0.190914720     11.584644421 2
    15.682323510     -0.903933499     10.657393581 2
    -3.232430027      6.918289371      1.876093179 1
    -2.453472767      6.992992781      2.457241527 2
    -3.897192667      7.367281078      2.381538200 2
    13.600922211      3.560671497      3.589779596 1
    13.933837832      4.418579650      3.361907812 2
    13.820483850      3.549728784      4.591199717 2
     3.127397225     10.078145852     13.675995595 1
     2.915888301      9.095338210     13.683179699 2
     3.419858232     10.249794021     12.763423012 2
     7.580855598     17.213492514     14.141759368 1
     6.766311287     17.586538617     14.537193528 2
     7.596660680     17.470987346     13.235894670 2
     0.084485196     10.550995724     10.075422261 1
     0.062788719      9.773893225      9.497103569 2
    -0.112378006     10.228407745     10.966966640 2
     9.314748767     10.850305238     11.923324268 1
     9.229049331      9.894165269     11.840091376 2
     9.766967726     11.195541407     11.136473137 2
    19.757178152     -4.267425086      4.998586334 1
    20.061449400     -4.344228791      4.080957286 2
    20.367719657     -3.710377526      5.455672140 2
     5.322745714      5.147619590      9.770669337 1
     5.234258437      4.622725401      8.991466824 2
     5.116592000      4.496805580     10.484631246 2
    19.217610674     -1.549200263      6.588964021 1
    18.388454625     -2.070688188      6.338170875 2
    19.117288489     -1.313002586      7.526581552 2
    11.221344385     20.277812687     20.444618045 1
    10.344822291     19.975711586     20.084243465 2
    11.911474062     20.176686970     19.796343522 2
    11.052794728     15.887002523      5.268608446 1
    11.514810452     16.313356608      6.016310610 2
    10.518955554     15.236211367      5.709400751 2
     8.051354274      6.008022279     21.967278786 1
     8.235370334      6.722008008     21.351347500 2
     7.115887325      6.046692588     22.213518987 2
    10.567323544     -1.284908147     14.676828014 1
    10.880261115     -0.397919637     14.417286718 2
    10.990454916     -1.470313037     15.513812726 2
     7.223351576     14.009186676     -9.000034490 1
     6.420601561     13.836768339     -9.539888481 2
     7.133935333     13.707606009     -8.089831863 2
     6.775879686     12.070683114      3.536401121 1
     6.934232931     12.183890433      2.605230356 2
     7.080943479     11.180471621      3.859206367 2
%endblock AtomicCoordinatesAndAtomicSpecies

XC.functional  VDW
XC.authors  BH
DM.MixingWeight  0.3
DM.NumberPulay  3
DM.UseSaveDM  True
DM.FormattedFiles  True
MeshCutoff  2721.1386 eV
ElectronicTemperature  0.00500000 eV
WriteMullikenPop  1
