SystemName  H2O
SystemLabel  H2O
NumberOfSpecies  2
NumberOfAtoms  384
%block ChemicalSpecieslabel
    1 8 O.vdw.1
    2 1 H.vdw.2
%endblock ChemicalSpecieslabel
%block PAO.Basis
O.vdw.1     3     -0.24233
n=2   0   2   E    23.36061     3.39721
     4.50769     2.64066
     1.00000     1.00000
n=2   1   2   E     2.78334     5.14253
     6.14996     2.59356
     1.00000     1.00000
n=3   2   1   E    63.98188     0.16104
     3.54403
     1.00000
H.vdw.2 2      0.46527
n=1   0   2   E    99.93138     2.59932
     4.20357     1.84463
     1.00000     1.00000
n=2   1   1   E    24.56504     2.20231
     3.5281
     1.00000
%endblock PAO.Basis
LatticeConstant  1.0 Ang
%block LatticeVectors
    15.646000000000001     0.000000000000000     0.000000000000000
    0.000000000000000     15.646000000000001     0.000000000000000
    0.000000000000000     0.000000000000000     15.646000000000001
%endblock LatticeVectors
AtomicCoordinatesFormat  Ang
%block AtomicCoordinatesAndAtomicSpecies
     1.851227622     16.069803757     15.581033092 1
     2.364012075     16.395386291     16.267331297 2
     2.304617961     15.227223457     15.412006544 2
    -2.736615934     18.099515928     10.704018436 1
    -3.304001910     17.406187705     11.007765371 2
    -3.138330019     18.941498322     10.770631917 2
    -4.499435997      0.453328495     11.946356315 1
    -5.093764220      0.117606961     11.266044446 2
    -5.055541843      0.867462067     12.645311374 2
     4.746457247     11.718389896     -0.301682102 1
     4.105893887     11.258161264     -0.823487089 2
     5.617502335     11.376194275     -0.513612854 2
    -2.287050491      2.220612180      1.112295384 1
    -1.542384318      2.208314028      1.740520657 2
    -3.014870449      2.768900000      1.481756908 2
    -7.035570342      2.645319128     17.598893398 1
    -7.274539524      2.411800063     16.715707895 2
    -7.673076448      2.214051016     18.203293137 2
     9.494587104     14.752360290      9.945247676 1
     9.333256737     15.598163052      9.433281822 2
     8.628700468     14.611929188     10.402434526 2
     5.166906855      2.701251632      7.104428466 1
     4.972536474      3.534900696      6.636398709 2
     4.642511515      2.759113253      7.929849725 2
     7.908288993     12.212304569     16.666706611 1
     8.764455582     11.799852299     16.602161610 2
     7.760644677     12.821254752     15.876795103 2
     7.152069779     -2.546992313     12.084320494 1
     7.261854092     -2.205404969     12.954235191 2
     7.876997375     -3.146560362     11.849761313 2
    12.158881727      6.011798941      8.514142451 1
    11.956552528      5.147329890      8.199191313 2
    11.340693350      6.505060611      8.215498058 2
     8.788854952      6.551307992      1.259216267 1
     9.413620962      7.185734546      0.784040518 2
     8.076522162      7.102100250      1.612444956 2
    12.805055543     10.937149414     17.981179018 1
    13.106943085     11.848375138     18.093350902 2
    13.507082091     10.417254688     18.362212841 2
    20.451713147      5.945389553     14.292943024 1
    19.945030916      5.330540490     13.690159539 2
    20.097967065      5.687513748     15.105552821 2
    15.397962683     -1.173221946      1.353182000 1
    15.912857914     -0.354406397      1.349521862 2
    14.483940650     -0.872558483      1.161463208 2
    -10.869201296     16.452961777     11.305077617 1
    -9.910169446     16.699851039     11.093691873 2
    -11.078999602     16.748215749     12.205996049 2
    14.935440689      6.299973353      7.461620157 1
    14.097223053      6.433357609      7.933732532 2
    15.031660263      5.285129955      7.392259632 2
     7.709437017     10.215908008      7.231126685 1
     8.083369526     10.851881146      7.859143952 2
     8.346016361      9.553854430      7.255201572 2
     1.527350827     -3.233658904      5.878718334 1
     0.689821051     -3.636359205      5.765703170 2
     2.178707265     -3.956181391      5.679043960 2
     0.940323877     24.016162104      0.375647634 1
     0.035995647     24.182807950      0.246594625 2
     1.319714755     24.850070272      0.761996660 2
     4.420271416     14.488933233     15.111058483 1
     4.663599220     13.511658169     15.225166070 2
     4.234521644     14.628171178     14.150802182 2
    -2.093314701     13.209828566      4.428750791 1
    -1.741233063     14.101762655      4.589807684 2
    -2.970441110     13.282862521      4.752716319 2
     7.532961838      9.524140881     -11.133350251 1
     7.226224942      8.617113737     -11.388226548 2
     7.155440476      9.580219776     -10.249294478 2
     7.370354557      1.270221216      6.361679602 1
     7.196359148      0.375246785      6.162877611 2
     6.539324007      1.654473006      6.535444819 2
     7.153794616     20.052925849     12.517855161 1
     6.646219659     20.410538039     13.251374161 2
     7.767036194     20.716285603     12.189092724 2
    11.565815674      9.814608083      9.436774853 1
    11.855051075      9.478656605     10.292371437 2
    11.193241661     10.658341075      9.585378012 2
    20.763157809     10.701891332     11.870185316 1
    20.180393132     11.135517003     11.244981280 2
    21.404574723     11.374968542     12.115002759 2
    10.791536413     -8.371494264      5.876463412 1
    10.433770797     -7.675588835      5.253056245 2
    10.674970718     -9.209650832      5.422201755 2
    -5.372719373      1.719242720     14.004828704 1
    -6.339470424      1.946883245     14.145919512 2
    -4.980959680      2.655771644     13.752728191 2
     1.626053533      2.947910408      5.985335105 1
     2.334207491      2.381485713      5.745026706 2
     1.786307866      3.898711692      5.721615460 2
     4.481178645     10.749557759      2.297807301 1
     4.786573015     11.068303703      1.431061001 2
     4.298017464      9.794761799      2.247008985 2
    -0.040056242      6.043259834      2.104333120 1
    -0.528722077      5.782505205      1.235973583 2
     0.265840690      6.970376733      1.923366148 2
     5.605863752      8.264089484     13.193455209 1
     5.091903173      9.097958097     13.127490130 2
     5.288439922      7.778620306     13.941045246 2
    14.669112767      4.480179358     -0.004226220 1
    13.853966861      4.047675231      0.237805689 2
    14.383356578      4.983851641     -0.827146759 2
    12.003635506     12.385050980      6.949400505 1
    12.156239870     11.410301408      7.089536643 2
    11.090767222     12.448897429      6.742951456 2
     3.733228829     14.793468295     24.826701486 1
     4.376144863     15.278370197     25.324601531 2
     2.936957232     15.343026233     24.649548422 2
    14.775954796     11.293929986      5.853184553 1
    14.188539515     10.850145268      6.460530546 2
    14.111522449     11.962150047      5.553209943 2
    -2.370385280     12.682449061     -4.099985507 1
    -1.775338092     12.882041537     -4.852586872 2
    -2.431991362     13.410916357     -3.472068239 2
     1.063964541     14.247054387      4.011715293 1
     1.269882651     13.378992529      4.412141743 2
     0.498168352     14.120614996      3.238035010 2
     5.462332829     14.013419196      4.466854632 1
     4.546241543     13.939608384      4.790326068 2
     5.812133875     13.162276811      4.085632379 2
     9.549441643     12.988853229      5.574866603 1
     8.804777294     13.483843480      5.897354017 2
     9.417932884     12.833907939      4.674391467 2
     3.587539760     16.844777019      5.629081788 1
     4.444250407     17.148905024      5.979257768 2
     3.296423436     16.068722229      6.112596107 2
    10.672363264     11.044468934      0.564361506 1
    11.410940441     10.807178766      1.125086935 2
    11.018221899     11.414261194     -0.312263950 2
     8.813729116      4.491491700     -0.690508013 1
     9.486674295      5.068420783     -1.098233381 2
     8.553444881      5.023888809      0.037769461 2
    15.643581446      3.041756343     11.281453802 1
    14.712857623      2.813345584     11.422265428 2
    15.787962479      2.857022074     10.342020460 2
    10.923256735     12.366583267     10.269275879 1
    11.790642147     12.455402963     10.716798119 2
    10.602107654     13.187934322      9.897162640 2
     3.297981170     12.000677000      9.853291891 1
     2.382722483     11.820293354      9.994866795 2
     3.244405974     12.966119800      9.752909232 2
     5.580132992      6.063293236      6.941453333 1
     4.867067948      5.918836982      6.296695736 2
     5.577953042      6.957895635      7.322050421 2
    -4.497634730      4.449205365     13.602523330 1
    -4.422490253      4.972159167     12.798830512 2
    -3.958698972      4.883494951     14.337731443 2
     7.471202895      1.906398167     11.217349501 1
     7.415782059      2.883370198     11.405300700 2
     8.229591105      1.857533889     10.639366109 2
     5.874455823      0.656230255      0.804562238 1
     6.045483919      0.510218273      1.773415291 2
     5.367226559     -0.099954316      0.547546749 2
    -0.360476085     13.172847890      9.673628433 1
    -1.025518512     13.422105631      8.995521280 2
    -0.230684483     12.218545808      9.574040633 2
    13.955061059     15.917359157      3.874402283 1
    13.382088735     16.621928908      4.286173203 2
    14.647784176     16.404003896      3.453526004 2
    17.244226810     -7.610335374      4.921116494 1
    16.466436823     -7.150783290      4.614234834 2
    17.816160814     -7.057977640      5.344911889 2
    15.845728745     17.568000358      2.743164496 1
    16.809154279     17.518908349      2.736153763 2
    15.662572446     18.442959782      3.104365091 2
    -2.139859625     15.086950761     12.832881072 1
    -2.893162935     15.455206239     12.339133914 2
    -1.923485430     15.615107644     13.623874094 2
    14.340576567      3.380156022      6.058515209 1
    13.947664126      2.826913284      6.782518784 2
    15.296246702      3.125254128      6.134950702 2
    19.162043603      5.446532140     16.917720273 1
    19.631124404      4.598292718     16.997420229 2
    18.296142980      5.154985177     16.629798373 2
     0.180681223     -0.581533702      6.281795693 1
     0.451993089     -0.832512282      5.380149947 2
     0.913856456     -0.930978526      6.825525748 2
     7.609442706      7.059807065      9.892856900 1
     6.767145071      6.700356635      9.603680563 2
     8.078357313      7.519493639      9.162703947 2
     3.145077488     -6.235277166      6.806188269 1
     3.835990041     -6.689836122      7.321137748 2
     3.669856992     -5.829275127      6.102931996 2
     6.990052746     20.414577883      3.370700811 1
     7.528405049     20.458553787      2.558386729 2
     7.431029483     19.746266748      3.936076298 2
    -0.180623066      9.680442752     12.678188674 1
     0.440464644      8.999671377     13.028549078 2
    -0.933312549      9.955812137     13.322349328 2
    11.124529965      3.503069954     -7.817615064 1
    10.952317091      3.848671600     -8.677752373 2
    11.802401506      2.783612018     -7.860483714 2
    10.768734316      0.688655221      2.696108134 1
    10.750732428      0.724268607      3.680972416 2
    10.118112122      1.365495600      2.377623606 2
    14.619186278      0.916661518     14.566984905 1
    15.575394865      0.862930987     14.688310007 2
    14.266667860      1.556075149     15.145863080 2
    12.996894802      8.827546306     11.516699250 1
    13.260965054      7.939541357     11.778683768 2
    13.828213461      9.286918626     11.705176029 2
    15.907062768     12.341938753     -0.248870750 1
    15.969499913     13.231409761      0.116280536 2
    16.301470001     12.430041866     -1.088021813 2
    13.671206997      8.043146335     -0.309688583 1
    12.951973846      7.612337307      0.245093953 2
    13.413732473      8.886007199     -0.748056452 2
    12.755276872     -6.107310007      6.828138735 1
    12.712623879     -6.336982437      7.766847792 2
    12.929299452     -6.907180663      6.236077757 2
     1.434407842      5.243977541     20.496814575 1
     0.762846205      5.086606004     19.836962007 2
     1.539764963      6.208356271     20.557341573 2
     8.368637533      3.508899863      5.251291585 1
     8.301033673      4.331229179      5.763600327 2
     8.080760434      2.694119976      5.686095343 2
    16.952858686     -3.492435805     -2.855630175 1
    16.225507294     -2.996062647     -3.282069270 2
    16.716732310     -4.425716158     -2.906830257 2
     6.306060382     12.396973963      9.101619397 1
     6.711485911     12.571934010      9.927393027 2
     5.362373141     12.207203341      9.216497757 2
    17.570150082      3.749675515     15.463368907 1
    17.863817649      3.084835746     14.803831156 2
    16.609591602      3.589016492     15.536987037 2
     3.520740884      8.114704840      2.818621639 1
     2.882107962      8.011013394      3.505269711 2
     3.498463983      7.252644999      2.328467599 2
    13.763675603     26.460658324     14.270758289 1
    14.094757506     27.003445437     15.004571405 2
    13.001858651     26.950905751     13.905909818 2
     8.672233301     -1.154425744     18.243529573 1
     9.422076487     -0.585861796     18.029912861 2
     8.745836424     -1.851231620     17.521474524 2
    16.302812399      8.861674753      7.965120076 1
    15.936986868      8.462055686      7.108094683 2
    17.036082697      9.364792363      7.633867958 2
     9.334969636      5.713249167     -4.420705221 1
     9.996595089      5.184854901     -4.885460884 2
     8.801971373      6.049958188     -5.201237876 2
    19.975826624      7.650694678     10.736700082 1
    20.462164309      7.798351125     11.571749429 2
    20.295874128      6.788567824     10.405395152 2
    18.985683546     20.275477198     -3.465727716 1
    18.986693343     19.334292379     -3.210685209 2
    18.002084195     20.472430721     -3.540434231 2
    15.382816736      9.754955127      3.632817730 1
    15.927786690     10.062965398      2.906981410 2
    15.450529501     10.423994470      4.332788232 2
    -2.403205108     17.652540629      7.997096109 1
    -2.370964885     17.808071620      8.979033357 2
    -2.219802353     16.665356875      7.951170748 2
    10.388573693      9.041832877      3.811845229 1
     9.532759844      9.510521095      3.971318423 2
    11.021061195      9.644674122      4.171105676 2
    13.576337658     14.717061501      8.013909511 1
    12.971067871     14.197479595      7.505596909 2
    14.354449851     14.691588221      7.348963468 2
     6.507488200      0.417280103     18.890311638 1
     5.734033624      0.090004930     19.323442797 2
     7.180657327     -0.306064340     18.773506536 2
    16.089383401      5.696333979     11.844229484 1
    15.879753487      4.885883635     11.464310032 2
    16.493960901      6.298889730     11.160517264 2
     9.436901191     -7.496290528      8.411808257 1
     9.866316560     -7.723883733      7.566787831 2
    10.013565995     -6.794706937      8.784501505 2
    12.528644804     -0.873015732      1.238838865 1
    12.234340264     -0.445329160      2.086024422 2
    12.551753753     -0.054741465      0.709208102 2
     5.125153481     -12.698064489      2.091695721 1
     5.351174562     -13.404617379      1.473919554 2
     5.954176228     -12.315034339      2.377587609 2
     1.614167389     10.849669401      1.689311443 1
     1.272300251     11.519516146      1.045600039 2
     2.546655995     11.079172766      1.900217925 2
     1.112239762      3.957602856      8.843278222 1
     1.482528084      4.830078788      9.070013348 2
     1.522698535      3.678768887      7.972392113 2
     2.109621443     17.690348464     12.960607054 1
     1.308782767     17.854430736     12.463651135 2
     2.104952849     16.806322093     13.320552043 2
    13.711135631      7.530326591      4.917240927 1
    12.756082209      7.344593237      5.104734796 2
    14.115819209      6.916567293      5.592620194 2
     9.194575994      1.582442506      8.495667225 1
     9.845024330      2.278470050      8.301538049 2
     8.499679849      1.586831889      7.856514987 2
     9.931968740      8.256659419     15.123471578 1
     9.490543979      8.213812498     14.296878482 2
    10.292290218      9.178215816     15.053549970 2
    -3.039118589     20.964613972     -4.520507343 1
    -3.081425090     21.569571921     -5.236762516 2
    -2.406015623     21.302189072     -3.867586857 2
     5.207259190      8.414645887      8.316646576 1
     4.876117533      8.377526342      9.286813731 2
     5.747848746      9.207244983      8.386561620 2
    10.984400340     11.855420876     13.654266833 1
    10.628712723     12.783627524     13.620251027 2
    10.331385271     11.302355608     13.162117145 2
     1.566672822     -8.820524631      9.824727274 1
     1.126195730     -8.341441297      9.137182322 2
     2.349465966     -8.367533334     10.011323368 2
    -1.503422722      6.071119374     13.423593671 1
    -0.577950411      6.066682528     13.136032406 2
    -1.682270130      6.938911208     13.790706931 2
     8.563895421      8.165251581     12.781978078 1
     8.964620014      7.563036235     12.105067230 2
     7.575083691      8.109810727     12.631803273 2
     7.524094251     -1.423510091     -0.974456446 1
     7.020261037     -0.660903143     -0.705714837 2
     8.442518226     -1.223005329     -1.094291900 2
     3.709377766     18.230824242      9.464326457 1
     2.778514442     18.080987906      9.424265909 2
     4.145804045     17.717575102     10.150325420 2
    11.616430952      4.657814545     16.119442528 1
    12.002069776      5.243289165     16.845976119 2
    10.673344869      4.744162240     16.310244013 2
    18.524236191      1.446412765     18.454056262 1
    19.152997686      2.176511171     18.520155704 2
    18.509578093      0.979635312     19.275650837 2
     3.387092026     14.073016216     12.774759601 1
     3.884708205     14.219950813     11.945189419 2
     3.246689055     13.108387325     12.625390723 2
     1.467123309     16.344342624      8.802294678 1
     1.015222990     16.214616960      9.640303925 2
     0.923966041     16.245160939      7.984992801 2
     6.498820373      7.440850401      3.064359788 1
     5.685986332      7.893676488      2.882681827 2
     6.345278380      6.482605667      3.181173753 2
     1.526620308     -7.889955935     13.368520526 1
     1.412140675     -7.952421176     14.357093449 2
     1.517167695     -8.846921111     12.936129297 2
     4.513121257     -11.100849228      4.987649804 1
     5.196969013     -11.017435568      4.293740443 2
     3.693000544     -10.823279407      4.598966218 2
    15.652684038     -0.012546052     10.948227379 1
    15.027980830     -0.068324235     11.693042671 2
    15.635145264     -0.887510906     10.623171141 2
    -3.221066556      6.921082024      1.843378493 1
    -2.424086804      7.002334817      2.426197636 2
    -3.923388042      7.303802999      2.373814937 2
    13.582512349      3.594095571      3.618153722 1
    13.916484214      4.470433214      3.369379079 2
    13.802345930      3.561726306      4.620393108 2
     3.142232605     10.042643304     13.687183959 1
     2.688624752      9.145012237     13.750341705 2
     3.369408718     10.221672202     12.756462003 2
     7.588535277     17.221439073     14.129839986 1
     6.695175462     17.448298558     14.435652078 2
     7.624826123     17.571994114     13.248565108 2
     0.104790928     10.567508323     10.032064736 1
     0.076258639      9.794200602      9.452447261 2
     0.034092489     10.214678927     10.944978084 2
     9.295809956     10.870042010     11.894272729 1
     9.123311553      9.941810154     11.940813648 2
     9.762220217     11.119338716     11.061162944 2
    19.766215998     -4.268979459      4.990498923 1
    20.176105849     -4.348186432      4.097934214 2
    20.327516241     -3.680915510      5.493149223 2
     5.330280372      5.162883642      9.790303230 1
     5.140618257      4.606205766      9.015221742 2
     5.106650701      4.612033922     10.561454539 2
    19.226801912     -1.551284319      6.587748854 1
    18.383516093     -2.057989544      6.430547506 2
    19.268118578     -1.444961118      7.555073834 2
    11.220474045     20.274462952     20.465380228 1
    10.417097278     20.054290349     19.950182628 2
    11.921660500     20.092806858     19.827486212 2
    11.063604074     15.889741787      5.304614249 1
    11.437262033     16.373196968      6.071086193 2
    10.461689218     15.308268688      5.724395170 2
     8.072237661      6.032171319     21.986781636 1
     8.234859714      6.685592269     21.279116269 2
     7.135751296      6.009191592     22.187510636 2
    10.519638743     -1.242878826     14.718728305 1
    10.901129993     -0.391964161     14.399499073 2
    10.979243896     -1.418245797     15.532358971 2
     7.219898236     14.041657786     -9.010873384 1
     6.446422336     13.790312519     -9.560710114 2
     7.075917940     13.722919521     -8.142753767 2
     6.743461340     12.049367638      3.586252499 1
     6.945181149     12.060131262      2.667058092 2
     6.882080435     11.110574543      3.882853057 2
%endblock AtomicCoordinatesAndAtomicSpecies
XC.functional  VDW
XC.authors  BH
DM.MixingWeight  0.3
DM.NumberPulay  3
DM.UseSaveDM  True
DM.FormattedFiles  True
MeshCutoff  2721.1386 eV
ElectronicTemperature  0.00500000 eV
WriteMullikenPop  1
